6078.67 437130
462598 25590.2
248028 230191
333136 170965
378379 103406
230370 246054
152075 345332
33981.7 419876
374783 103541
59020.5 404824
39920.7 414040
97167.4 377128
160182 330354
322080 177276
72860.9 395415
415163 40346.2
287063 179834
368364 108459
253699 212913
350498 142434
385722 73393.8
409361 46975.9
381778 98830.6
268594 203684
140067 348515
168256 311700
112138 359450
234131 234315
91521.5 386466
211667 261784
282907 201896
190856 271209
321330 179018
437443 27188
184045 278683
365273 113374
174820 285174
26400.8 434748
91162.7 389684
384993 80736.4
247221 231437
166426 315676
136697 350730
100036 374288
434811 28669.6
111807 362236
345403 153461
219963 257032
404206 70653.8
178154 282209
90888.3 394042
338910 154121
207318 268427
265325 204977
